20
587 233 220
95 92 46
65 60 40
103 62 59
71 65 52
119 87 28
109 92 78
58 54 35
98 73 64
44 44 40
70 69 35
119 61 58
89 55 45
75 68 58
43 37 30
95 77 41
65 63 63
107 70 62
109 69 21
54 34 21
118 45 32
thpack7_89